(set-logic QF_NRA)
; benchmark generated from python API
(set-info :status unknown)
(declare-fun v1y () Real)
(declare-fun oy () Real)
(declare-fun v1x () Real)
(declare-fun R2 () Real)
(declare-fun y1y () Real)
(declare-fun xy () Real)
(declare-fun y1x () Real)
(declare-fun xx () Real)
(declare-fun rho2 () Real)
(declare-fun y2y () Real)
(declare-fun y2x () Real)
(declare-fun y3y () Real)
(declare-fun y3x () Real)
(declare-fun b1y () Real)
(declare-fun b1x () Real)
(assert
 (let ((?x182 (* (- 1.0) v1x)))
 (let ((?x209 (* (- 1.0) R2)))
 (let ((?x444 (+ (+ (+ (+ (/ 1.0 4.0) (* oy oy)) (* v1x v1x)) (* v1y v1y)) ?x209)))
 (= (+ (+ ?x444 ?x182) (* (* (- 2.0) oy) v1y)) 0.0)))))
(assert
 (= (+ (+ (/ 1.0 4.0) (* oy oy)) (* (- 1.0) R2)) 0.0))
(assert
 (let ((?x403 (* (- 1.0) rho2)))
 (let ((?x587 (* y1y y1y)))
 (let ((?x277 (+ (+ (+ (+ (* xx xx) (* xy xy)) (* y1x y1x)) ?x587) ?x403)))
 (= (+ (+ ?x277 (* (* (- 2.0) xx) y1x)) (* (* (- 2.0) xy) y1y)) 0.0)))))
(assert
 (let ((?x403 (* (- 1.0) rho2)))
 (let ((?x76 (* y2y y2y)))
 (let ((?x258 (+ (+ (+ (+ (* xx xx) (* xy xy)) (* y2x y2x)) ?x76) ?x403)))
 (= (+ (+ ?x258 (* (* (- 2.0) xx) y2x)) (* (* (- 2.0) xy) y2y)) 0.0)))))
(assert
 (let ((?x403 (* (- 1.0) rho2)))
 (let ((?x81 (* y3y y3y)))
 (let ((?x199 (+ (+ (+ (+ (* xx xx) (* xy xy)) (* y3x y3x)) ?x81) ?x403)))
 (= (+ (+ ?x199 (* (* (- 2.0) xx) y3x)) (* (* (- 2.0) xy) y3y)) 0.0)))))
(assert
 (let ((?x403 (* (- 1.0) rho2)))
 (let ((?x164 (* xy xy)))
 (let ((?x32 (+ (+ (+ (+ (* b1x b1x) (* b1y b1y)) (* xx xx)) ?x164) ?x403)))
 (= (+ (+ ?x32 (* (* (- 2.0) b1x) xx)) (* (* (- 2.0) b1y) xy)) 0.0)))))
(assert
 (let ((?x295 (+ (+ (+ (+ (- (/ 1.0 4.0)) R2) xx) (* (- 1.0) (* oy oy))) (* (- 1.0) (* xx xx)))))
 (>= (+ (+ ?x295 (* (- 1.0) (* xy xy))) (* (* 2.0 oy) xy)) 0.0)))
(assert
 (let ((?x249 (+ (+ (+ (+ (- (/ 1.0 4.0)) R2) y1x) (* (- 1.0) (* oy oy))) (* (- 1.0) (* y1x y1x)))))
 (>= (+ (+ ?x249 (* (- 1.0) (* y1y y1y))) (* (* 2.0 oy) y1y)) 0.0)))
(assert
 (let ((?x420 (+ (+ (+ (+ (- (/ 1.0 4.0)) R2) y2x) (* (- 1.0) (* oy oy))) (* (- 1.0) (* y2x y2x)))))
 (>= (+ (+ ?x420 (* (- 1.0) (* y2y y2y))) (* (* 2.0 oy) y2y)) 0.0)))
(assert
 (let ((?x196 (+ (+ (+ (+ (- (/ 1.0 4.0)) R2) y3x) (* (- 1.0) (* oy oy))) (* (- 1.0) (* y3x y3x)))))
 (>= (+ (+ ?x196 (* (- 1.0) (* y3y y3y))) (* (* 2.0 oy) y3y)) 0.0)))
(assert
 (let ((?x369 (* oy oy)))
 (let ((?x88 (* (- 1.0) ?x369)))
 (let ((?x779 (+ (+ (+ (+ (- (/ 1.0 4.0)) R2) b1x) (* (- 1.0) (* b1x b1x))) (* (- 1.0) (* b1y b1y)))))
 (>= (+ (+ ?x779 ?x88) (* (* 2.0 b1y) oy)) 0.0)))))
(assert
 (>= (+ (+ (* v1x v1x) (* v1y v1y)) (* (- 1.0) v1x)) 0.0))
(assert
 (>= v1x 0.0))
(assert
 (>= (+ 1.0 (* (- 1.0) v1x)) 0.0))
(assert
 (> R2 0.0))
(assert
 (> rho2 0.0))
(assert
 (let ((?x418 (* (- 1.0) v1y)))
 (let ((?x65 (* ?x418 xy)))
 (> ?x65 0.0))))
(assert
 (let ((?x60 (+ (+ (* v1y v1y) (* (* (- 1.0) v1y) xy)) (* (* (- 1.0) xx) (* v1y v1y)))))
 (> (+ ?x60 (* (* v1x v1y) xy)) 0.0)))
(assert
 (> (+ (* xx (* v1y v1y)) (* (* (* (- 1.0) v1x) v1y) xy)) 0.0))
(assert
 (let ((?x418 (* (- 1.0) v1y)))
 (let ((?x111 (* ?x418 y1y)))
 (> ?x111 0.0))))
(assert
 (let ((?x132 (+ (+ (* v1y v1y) (* (* (- 1.0) v1y) y1y)) (* (* (- 1.0) y1x) (* v1y v1y)))))
 (> (+ ?x132 (* (* v1x v1y) y1y)) 0.0)))
(assert
 (> (+ (* y1x (* v1y v1y)) (* (* (* (- 1.0) v1x) v1y) y1y)) 0.0))
(assert
 (let ((?x418 (* (- 1.0) v1y)))
 (let ((?x16 (* ?x418 y2y)))
 (> ?x16 0.0))))
(assert
 (let ((?x181 (+ (+ (* v1y v1y) (* (* (- 1.0) v1y) y2y)) (* (* (- 1.0) y2x) (* v1y v1y)))))
 (> (+ ?x181 (* (* v1x v1y) y2y)) 0.0)))
(assert
 (> (+ (* y2x (* v1y v1y)) (* (* (* (- 1.0) v1x) v1y) y2y)) 0.0))
(assert
 (let ((?x418 (* (- 1.0) v1y)))
 (let ((?x297 (* ?x418 y3y)))
 (> ?x297 0.0))))
(assert
 (let ((?x49 (+ (+ (* v1y v1y) (* (* (- 1.0) v1y) y3y)) (* (* (- 1.0) y3x) (* v1y v1y)))))
 (> (+ ?x49 (* (* v1x v1y) y3y)) 0.0)))
(assert
 (> (+ (* y3x (* v1y v1y)) (* (* (* (- 1.0) v1x) v1y) y3y)) 0.0))
(assert
 (> (* b1y v1y) 0.0))
(assert
 (let ((?x73 (* b1y v1x)))
 (let ((?x57 (* ?x73 v1y)))
 (let ((?x428 (+ (+ (* v1y v1y) (* (* (- 1.0) b1x) (* v1y v1y))) (* (* (- 1.0) b1y) v1y))))
 (> (+ ?x428 ?x57) 0.0)))))
(assert
 (> (+ (* (* (- 1.0) b1x) (* v1y v1y)) (* (* b1y v1x) v1y)) 0.0))
(assert
 (> (+ (* y1x y2y) (* (* (- 1.0) y1y) y2x)) 0.0))
(assert
 (> (+ (* xy y1x) (* (* (- 1.0) xx) y1y)) 0.0))
(assert
 (> (+ (* y1x y3y) (* (* (- 1.0) y1y) y3x)) 0.0))
(assert
 (let ((?x317 (* (- 1.0) y1y)))
 (> ?x317 0.0)))
(assert
 (> (+ (* v1y y1x) (* (* (- 1.0) v1x) y1y)) 0.0))
(assert
 (> (+ (* b1y y1x) (* (* (- 1.0) b1x) y1y)) 0.0))
(assert
 (> (+ (* xy y2x) (* (* (- 1.0) xx) y2y)) 0.0))
(assert
 (> (+ (* y2x y3y) (* (* (- 1.0) y2y) y3x)) 0.0))
(assert
 (let ((?x451 (* (- 1.0) y2y)))
 (> ?x451 0.0)))
(assert
 (> (+ (* v1y y2x) (* (* (- 1.0) v1x) y2y)) 0.0))
(assert
 (> (+ (* b1y y2x) (* (* (- 1.0) b1x) y2y)) 0.0))
(assert
 (> (+ (* xx y3y) (* (* (- 1.0) xy) y3x)) 0.0))
(assert
 (let ((?x352 (* (- 1.0) xy)))
 (> ?x352 0.0)))
(assert
 (> (+ (* v1y xx) (* (* (- 1.0) v1x) xy)) 0.0))
(assert
 (> (+ (* b1y xx) (* (* (- 1.0) b1x) xy)) 0.0))
(assert
 (let ((?x40 (* (- 1.0) y3y)))
 (> ?x40 0.0)))
(assert
 (> (+ (* v1y y3x) (* (* (- 1.0) v1x) y3y)) 0.0))
(assert
 (> (+ (* b1y y3x) (* (* (- 1.0) b1x) y3y)) 0.0))
(assert
 (> v1y 0.0))
(assert
 (> b1y 0.0))
(assert
 (> (+ (* b1y v1x) (* (* (- 1.0) b1x) v1y)) 0.0))
(assert
 (let ((?x317 (* (- 1.0) y1y)))
 (let ((?x315 (* ?x317 y2x)))
 (let ((?x230 (* (- 1.0) xx)))
 (let ((?x291 (* ?x230 y2y)))
 (let ((?x426 (+ (+ (+ (+ (* xx y1y) (* xy y2x)) (* y1x y2y)) ?x291) (* (* (- 1.0) xy) y1x))))
 (> (+ ?x426 ?x315) 0.0)))))))
(assert
 (let ((?x451 (* (- 1.0) y2y)))
 (let ((?x109 (* ?x451 y3x)))
 (let ((?x317 (* (- 1.0) y1y)))
 (let ((?x315 (* ?x317 y2x)))
 (let ((?x380 (* (- 1.0) y1x)))
 (let ((?x167 (* ?x380 y3y)))
 (let ((?x414 (+ (+ (+ (+ (* y1x y2y) (* y1y y3x)) (* y2x y3y)) ?x167) ?x315)))
 (> (+ ?x414 ?x109) 0.0)))))))))
(assert
 (let ((?x317 (* (- 1.0) y1y)))
 (let ((?x315 (* ?x317 y2x)))
 (> (+ (+ (+ y1y (* (- 1.0) y2y)) (* y1x y2y)) ?x315) 0.0))))
(assert
 (let ((?x317 (* (- 1.0) y1y)))
 (let ((?x315 (* ?x317 y2x)))
 (let ((?x418 (* (- 1.0) v1y)))
 (let ((?x119 (* ?x418 y1x)))
 (let ((?x182 (* (- 1.0) v1x)))
 (let ((?x255 (* ?x182 y2y)))
 (let ((?x107 (+ (+ (+ (+ (* v1x y1y) (* v1y y2x)) (* y1x y2y)) ?x255) ?x119)))
 (> (+ ?x107 ?x315) 0.0)))))))))
(assert
 (let ((?x317 (* (- 1.0) y1y)))
 (let ((?x315 (* ?x317 y2x)))
 (let ((?x266 (* (- 1.0) b1y)))
 (let ((?x391 (* ?x266 y1x)))
 (let ((?x55 (* (- 1.0) b1x)))
 (let ((?x28 (* ?x55 y2y)))
 (let ((?x186 (+ (+ (+ (+ (* b1x y1y) (* b1y y2x)) (* y1x y2y)) ?x28) ?x391)))
 (> (+ ?x186 ?x315) 0.0)))))))))
(assert
 (let ((?x380 (* (- 1.0) y1x)))
 (let ((?x167 (* ?x380 y3y)))
 (let ((?x352 (* (- 1.0) xy)))
 (let ((?x330 (* ?x352 y3x)))
 (let ((?x230 (* (- 1.0) xx)))
 (let ((?x260 (* ?x230 y1y)))
 (let ((?x285 (+ (+ (+ (+ (* xx y3y) (* xy y1x)) (* y1y y3x)) ?x260) ?x330)))
 (> (+ ?x285 ?x167) 0.0)))))))))
(assert
 (let ((?x230 (* (- 1.0) xx)))
 (let ((?x260 (* ?x230 y1y)))
 (> (+ (+ (+ y1y (* (- 1.0) xy)) (* xy y1x)) ?x260) 0.0))))
(assert
 (let ((?x230 (* (- 1.0) xx)))
 (let ((?x260 (* ?x230 y1y)))
 (let ((?x418 (* (- 1.0) v1y)))
 (let ((?x119 (* ?x418 y1x)))
 (let ((?x182 (* (- 1.0) v1x)))
 (let ((?x415 (* ?x182 xy)))
 (let ((?x165 (+ (+ (+ (+ (* v1x y1y) (* v1y xx)) (* xy y1x)) ?x415) ?x119)))
 (> (+ ?x165 ?x260) 0.0)))))))))
(assert
 (let ((?x230 (* (- 1.0) xx)))
 (let ((?x260 (* ?x230 y1y)))
 (let ((?x266 (* (- 1.0) b1y)))
 (let ((?x391 (* ?x266 y1x)))
 (let ((?x55 (* (- 1.0) b1x)))
 (let ((?x112 (* ?x55 xy)))
 (let ((?x243 (+ (+ (+ (+ (* b1x y1y) (* b1y xx)) (* xy y1x)) ?x112) ?x391)))
 (> (+ ?x243 ?x260) 0.0)))))))))
(assert
 (let ((?x317 (* (- 1.0) y1y)))
 (let ((?x42 (* ?x317 y3x)))
 (> (+ (+ (+ y1y (* (- 1.0) y3y)) (* y1x y3y)) ?x42) 0.0))))
(assert
 (let ((?x317 (* (- 1.0) y1y)))
 (let ((?x42 (* ?x317 y3x)))
 (let ((?x418 (* (- 1.0) v1y)))
 (let ((?x119 (* ?x418 y1x)))
 (let ((?x182 (* (- 1.0) v1x)))
 (let ((?x207 (* ?x182 y3y)))
 (let ((?x106 (+ (+ (+ (+ (* v1x y1y) (* v1y y3x)) (* y1x y3y)) ?x207) ?x119)))
 (> (+ ?x106 ?x42) 0.0)))))))))
(assert
 (let ((?x317 (* (- 1.0) y1y)))
 (let ((?x42 (* ?x317 y3x)))
 (let ((?x266 (* (- 1.0) b1y)))
 (let ((?x391 (* ?x266 y1x)))
 (let ((?x55 (* (- 1.0) b1x)))
 (let ((?x483 (* ?x55 y3y)))
 (let ((?x149 (+ (+ (+ (+ (* b1x y1y) (* b1y y3x)) (* y1x y3y)) ?x483) ?x391)))
 (> (+ ?x149 ?x42) 0.0)))))))))
(assert
 (let ((?x418 (* (- 1.0) v1y)))
 (let ((?x119 (* ?x418 y1x)))
 (> (+ (+ (+ v1y (* (- 1.0) y1y)) (* v1x y1y)) ?x119) 0.0))))
(assert
 (let ((?x266 (* (- 1.0) b1y)))
 (let ((?x391 (* ?x266 y1x)))
 (> (+ (+ (+ b1y (* (- 1.0) y1y)) (* b1x y1y)) ?x391) 0.0))))
(assert
 (let ((?x182 (* (- 1.0) v1x)))
 (let ((?x701 (* ?x182 y1y)))
 (let ((?x266 (* (- 1.0) b1y)))
 (let ((?x391 (* ?x266 y1x)))
 (let ((?x55 (* (- 1.0) b1x)))
 (let ((?x284 (* ?x55 v1y)))
 (let ((?x474 (+ (+ (+ (+ (* b1x y1y) (* b1y v1x)) (* v1y y1x)) ?x284) ?x391)))
 (> (+ ?x474 ?x701) 0.0)))))))))
(assert
 (let ((?x352 (* (- 1.0) xy)))
 (let ((?x330 (* ?x352 y3x)))
 (let ((?x230 (* (- 1.0) xx)))
 (let ((?x291 (* ?x230 y2y)))
 (let ((?x292 (+ (+ (+ (+ (* xx y3y) (* xy y2x)) (* y2y y3x)) ?x291) ?x330)))
 (> (+ ?x292 (* (* (- 1.0) y2x) y3y)) 0.0)))))))
(assert
 (let ((?x230 (* (- 1.0) xx)))
 (let ((?x291 (* ?x230 y2y)))
 (> (+ (+ (+ y2y (* (- 1.0) xy)) (* xy y2x)) ?x291) 0.0))))
(assert
 (let ((?x230 (* (- 1.0) xx)))
 (let ((?x291 (* ?x230 y2y)))
 (let ((?x418 (* (- 1.0) v1y)))
 (let ((?x187 (* ?x418 y2x)))
 (let ((?x182 (* (- 1.0) v1x)))
 (let ((?x415 (* ?x182 xy)))
 (let ((?x427 (+ (+ (+ (+ (* v1x y2y) (* v1y xx)) (* xy y2x)) ?x415) ?x187)))
 (> (+ ?x427 ?x291) 0.0)))))))))
(assert
 (let ((?x230 (* (- 1.0) xx)))
 (let ((?x291 (* ?x230 y2y)))
 (let ((?x266 (* (- 1.0) b1y)))
 (let ((?x470 (* ?x266 y2x)))
 (let ((?x55 (* (- 1.0) b1x)))
 (let ((?x112 (* ?x55 xy)))
 (let ((?x281 (+ (+ (+ (+ (* b1x y2y) (* b1y xx)) (* xy y2x)) ?x112) ?x470)))
 (> (+ ?x281 ?x291) 0.0)))))))))
(assert
 (let ((?x451 (* (- 1.0) y2y)))
 (let ((?x109 (* ?x451 y3x)))
 (> (+ (+ (+ y2y (* (- 1.0) y3y)) (* y2x y3y)) ?x109) 0.0))))
(assert
 (let ((?x451 (* (- 1.0) y2y)))
 (let ((?x109 (* ?x451 y3x)))
 (let ((?x418 (* (- 1.0) v1y)))
 (let ((?x187 (* ?x418 y2x)))
 (let ((?x182 (* (- 1.0) v1x)))
 (let ((?x207 (* ?x182 y3y)))
 (let ((?x131 (+ (+ (+ (+ (* v1x y2y) (* v1y y3x)) (* y2x y3y)) ?x207) ?x187)))
 (> (+ ?x131 ?x109) 0.0)))))))))
(assert
 (let ((?x451 (* (- 1.0) y2y)))
 (let ((?x109 (* ?x451 y3x)))
 (let ((?x266 (* (- 1.0) b1y)))
 (let ((?x470 (* ?x266 y2x)))
 (let ((?x55 (* (- 1.0) b1x)))
 (let ((?x483 (* ?x55 y3y)))
 (let ((?x256 (+ (+ (+ (+ (* b1x y2y) (* b1y y3x)) (* y2x y3y)) ?x483) ?x470)))
 (> (+ ?x256 ?x109) 0.0)))))))))
(assert
 (let ((?x418 (* (- 1.0) v1y)))
 (let ((?x187 (* ?x418 y2x)))
 (> (+ (+ (+ v1y (* (- 1.0) y2y)) (* v1x y2y)) ?x187) 0.0))))
(assert
 (let ((?x266 (* (- 1.0) b1y)))
 (let ((?x470 (* ?x266 y2x)))
 (> (+ (+ (+ b1y (* (- 1.0) y2y)) (* b1x y2y)) ?x470) 0.0))))
(assert
 (let ((?x182 (* (- 1.0) v1x)))
 (let ((?x255 (* ?x182 y2y)))
 (let ((?x266 (* (- 1.0) b1y)))
 (let ((?x470 (* ?x266 y2x)))
 (let ((?x55 (* (- 1.0) b1x)))
 (let ((?x284 (* ?x55 v1y)))
 (let ((?x23 (+ (+ (+ (+ (* b1x y2y) (* b1y v1x)) (* v1y y2x)) ?x284) ?x470)))
 (> (+ ?x23 ?x255) 0.0)))))))))
(assert
 (let ((?x352 (* (- 1.0) xy)))
 (let ((?x330 (* ?x352 y3x)))
 (> (+ (+ (+ xy (* (- 1.0) y3y)) (* xx y3y)) ?x330) 0.0))))
(assert
 (let ((?x352 (* (- 1.0) xy)))
 (let ((?x330 (* ?x352 y3x)))
 (let ((?x418 (* (- 1.0) v1y)))
 (let ((?x457 (* ?x418 xx)))
 (let ((?x182 (* (- 1.0) v1x)))
 (let ((?x207 (* ?x182 y3y)))
 (let ((?x206 (+ (+ (+ (+ (* v1x xy) (* v1y y3x)) (* xx y3y)) ?x207) ?x457)))
 (> (+ ?x206 ?x330) 0.0)))))))))
(assert
 (let ((?x352 (* (- 1.0) xy)))
 (let ((?x330 (* ?x352 y3x)))
 (let ((?x266 (* (- 1.0) b1y)))
 (let ((?x102 (* ?x266 xx)))
 (let ((?x55 (* (- 1.0) b1x)))
 (let ((?x483 (* ?x55 y3y)))
 (let ((?x273 (+ (+ (+ (+ (* b1x xy) (* b1y y3x)) (* xx y3y)) ?x483) ?x102)))
 (> (+ ?x273 ?x330) 0.0)))))))))
(assert
 (let ((?x418 (* (- 1.0) v1y)))
 (let ((?x457 (* ?x418 xx)))
 (> (+ (+ (+ v1y (* (- 1.0) xy)) (* v1x xy)) ?x457) 0.0))))
(assert
 (let ((?x266 (* (- 1.0) b1y)))
 (let ((?x102 (* ?x266 xx)))
 (> (+ (+ (+ b1y (* (- 1.0) xy)) (* b1x xy)) ?x102) 0.0))))
(assert
 (let ((?x182 (* (- 1.0) v1x)))
 (let ((?x415 (* ?x182 xy)))
 (let ((?x266 (* (- 1.0) b1y)))
 (let ((?x102 (* ?x266 xx)))
 (let ((?x55 (* (- 1.0) b1x)))
 (let ((?x284 (* ?x55 v1y)))
 (let ((?x240 (+ (+ (+ (+ (* b1x xy) (* b1y v1x)) (* v1y xx)) ?x284) ?x102)))
 (> (+ ?x240 ?x415) 0.0)))))))))
(assert
 (let ((?x14 (+ (+ (+ v1y (* (- 1.0) y3y)) (* v1x y3y)) (* (* (- 1.0) v1y) y3x))))
 (> ?x14 0.0)))
(assert
 (let ((?x266 (* (- 1.0) b1y)))
 (let ((?x462 (* ?x266 y3x)))
 (> (+ (+ (+ b1y (* (- 1.0) y3y)) (* b1x y3y)) ?x462) 0.0))))
(assert
 (let ((?x182 (* (- 1.0) v1x)))
 (let ((?x207 (* ?x182 y3y)))
 (let ((?x266 (* (- 1.0) b1y)))
 (let ((?x462 (* ?x266 y3x)))
 (let ((?x55 (* (- 1.0) b1x)))
 (let ((?x284 (* ?x55 v1y)))
 (let ((?x404 (+ (+ (+ (+ (* b1x y3y) (* b1y v1x)) (* v1y y3x)) ?x284) ?x462)))
 (> (+ ?x404 ?x207) 0.0)))))))))
(assert
 (let ((?x55 (* (- 1.0) b1x)))
(let ((?x284 (* ?x55 v1y)))
(> (+ (+ (+ v1y (* (- 1.0) b1y)) (* b1y v1x)) ?x284) 0.0))))
(check-sat)
